sat
(:max-memory          18.61
 :memory              17.65
 :num-allocs          1818092942
 :rlimit-count        352849
 :sls-constraints     4013
 :sls-ddfw-flips      2952297.00
 :sls-ddfw-reinits    24
 :sls-ddfw-restarts   2506
 :sls-ddfw-shifts     2581376.00
 :solve-eqs-elim-vars 5
 :solve-eqs-steps     12
 :time                3.54
 :total-time          3.54)
